p edge 60 179
e 1 2
e 1 10
e 1 21
e 1 29
e 1 30
e 1 41
e 1 51
e 2 5
e 2 8
e 2 10
e 2 17
e 2 18
e 2 35
e 2 60
e 3 4
e 3 16
e 3 22
e 3 30
e 3 35
e 3 60
e 4 38
e 5 27
e 5 29
e 5 37
e 5 39
e 5 45
e 5 48
e 6 16
e 6 19
e 6 33
e 6 36
e 6 37
e 6 39
e 6 54
e 6 56
e 6 58
e 7 50
e 8 14
e 8 17
e 8 25
e 8 31
e 8 43
e 9 12
e 9 32
e 9 38
e 9 41
e 9 43
e 9 46
e 9 51
e 10 28
e 10 31
e 10 32
e 10 40
e 10 43
e 10 45
e 11 31
e 11 35
e 11 47
e 11 50
e 11 51
e 11 58
e 11 59
e 12 24
e 12 34
e 12 47
e 13 18
e 13 19
e 13 28
e 13 38
e 13 48
e 14 18
e 14 30
e 14 34
e 14 35
e 14 44
e 14 46
e 14 47
e 14 56
e 14 57
e 15 36
e 15 41
e 15 42
e 15 47
e 15 54
e 16 20
e 16 36
e 16 41
e 16 53
e 16 60
e 17 18
e 17 22
e 17 33
e 17 38
e 17 39
e 18 22
e 18 24
e 18 32
e 18 48
e 18 51
e 18 52
e 18 56
e 19 29
e 19 37
e 19 38
e 19 39
e 19 46
e 19 48
e 19 49
e 20 29
e 20 31
e 20 36
e 20 55
e 21 33
e 21 38
e 22 23
e 22 24
e 22 38
e 22 44
e 22 46
e 23 25
e 23 33
e 23 49
e 23 52
e 24 29
e 24 44
e 24 52
e 24 53
e 25 32
e 25 43
e 26 28
e 26 54
e 29 36
e 29 41
e 30 53
e 30 56
e 30 59
e 31 50
e 31 51
e 31 52
e 32 39
e 32 57
e 32 58
e 33 35
e 33 41
e 36 37
e 36 40
e 36 42
e 36 57
e 37 44
e 37 57
e 38 42
e 38 50
e 38 59
e 39 41
e 39 47
e 39 50
e 39 55
e 40 42
e 40 53
e 41 44
e 41 50
e 41 56
e 42 43
e 42 45
e 42 53
e 43 46
e 43 48
e 43 52
e 44 55
e 45 54
e 46 47
e 46 55
e 47 55
e 48 59
e 50 52
e 50 55
e 53 58
e 56 60
e 59 60
